WARNING: for repeatability, setting FPU to use double precision
 -----------------------------------------------------------------------------------------------------------------------
|                                 manysat2.0    4 thread(s) on 8 core(s)                                                |
 -----------------------------------------------------------------------------------------------------------------------
 ===============================================[ Problem Statistics ]==================================================
|                                                                                                                       |
|  Number of cores:                 4                                                                                   |
|  Number of variables:         13408                                                                                   |
|  Number of clauses:          308391                                                                                   |
|  Parse time:                   0.29 s                                                                                 |
|                                                                                                                       |
 ==============================================[ Search Statistics ]====================================================
|   Thread  | Conflicts |          ORIGINAL         |          LEARNT          |  exported  / imported      |  Progress |
|    (id)   |           |    Vars  Clauses Literals |    Limit  Clauses Lit/Cl |  (clauses by restart)      |           |
 =======================================================================================================================
|         0 |       100 |   13002   308304  1771789 |   113044       90      5 |           0  -           0 |  3.028 %  |
|         0 |       250 |   13002   308304  1771789 |   124349      240      6 |           0  -           0 |  3.028 %  |
|         1 |       100 |   13002   308304  1771789 |   113076      634      6 |        1189  -         534 |  3.028 %  |
|         0 |       475 |   13002   308304  1771789 |   136784      721      6 |        1176  -         259 |  3.028 %  |
|         2 |       100 |   13002   308304  1771789 |   113076      741      6 |        1189  -         638 |  3.028 %  |
|         3 |       100 |   13002   308304  1771789 |   113076      912      6 |        1189  -         806 |  3.028 %  |
|         1 |       250 |   13002   308304  1771789 |   124384     1293      6 |        1189  -        1043 |  3.028 %  |
|         2 |       250 |   13002   308304  1771789 |   124384     1479      6 |        1189  -        1224 |  3.028 %  |
|         3 |       250 |   13002   308304  1771789 |   124384     1548      6 |        1206  -        1292 |  3.028 %  |
|         0 |       812 |   12997   308304  1771789 |   150462     1650      6 |        1191  -         853 |  3.065 %  |
|         1 |       475 |   12997   308304  1771789 |   136822     2142      6 |        1206  -        1668 |  3.065 %  |
|         2 |       475 |   12997   308304  1771789 |   136822     2448      6 |        1206  -        1969 |  3.065 %  |
|         3 |       475 |   12997   308304  1771789 |   136822     2544      6 |        1221  -        2063 |  3.065 %  |
|         1 |       812 |   12997   308304  1771789 |   150505     3272      6 |        1206  -        2461 |  3.065 %  |
|         0 |      1318 |   12997   308304  1771789 |   165508     3388      6 |        1206  -        2085 |  3.065 %  |
|         3 |       812 |   12997   308304  1771789 |   150505     3989      6 |        1221  -        3171 |  3.065 %  |
|         2 |       812 |   12997   308304  1771789 |   150505     4152      6 |        1206  -        3336 |  3.065 %  |
|         1 |      1318 |   12997   308304  1771789 |   165555     4818      6 |        1211  -        3501 |  3.065 %  |
|         0 |      2077 |   12996   308304  1771789 |   182059     5980      6 |        1206  -        3919 |  3.073 %  |
|         2 |      1318 |   12997   308304  1771789 |   165555     6159      6 |        1211  -        4837 |  3.065 %  |
|         3 |      1318 |   12997   308304  1771789 |   165555     6722      6 |        1226  -        5398 |  3.065 %  |
|         1 |      2077 |   12996   308304  1771789 |   182111     7080      6 |        1211  -        5004 |  3.073 %  |
|         0 |      3216 |   12996   308304  1771789 |   200265     9576      6 |        1206  -        6376 |  3.073 %  |
|         2 |      2077 |   12996   308304  1771789 |   182111     9637      6 |        1211  -        7556 |  3.073 %  |
|         3 |      2077 |   12996   308304  1771789 |   182111    10391      6 |        1226  -        8308 |  3.073 %  |
|         1 |      3216 |   12996   308304  1771789 |   200322    10484      6 |        1211  -        7269 |  3.073 %  |
|         2 |      3216 |   12996   308304  1771789 |   200322    13804      6 |        1211  -       10584 |  3.073 %  |
|         0 |      4924 |   12996   308304  1771789 |   220292    15458      6 |        1212  -       10549 |  3.073 %  |
|         3 |      3216 |   12996   308304  1771789 |   200322    15459      6 |        1232  -       12237 |  3.073 %  |
|         1 |      4924 |   12995   308304  1771789 |   220354    15628      6 |        1211  -       10706 |  3.080 %  |
|         2 |      4924 |   12996   308304  1771789 |   220354    20079      6 |        1220  -       15151 |  3.073 %  |
|         3 |      4924 |   12995   308304  1771789 |   220354    22046      6 |        1235  -       17116 |  3.080 %  |
|         1 |      7486 |   12994   308304  1771789 |   242389    23322      6 |        1213  -       15839 |  3.088 %  |
|         0 |      7486 |   12994   308304  1771789 |   242321    23757      6 |        1213  -       16287 |  3.088 %  |
|         0 |     11330 |   12994   308304  1771789 |   266553    31540      8 |        1213  -       20226 |  3.088 %  |
|         2 |      7486 |   12994   308304  1771789 |   242389    30083      6 |        1220  -       22593 |  3.088 %  |
|         1 |     11330 |   12994   308304  1771789 |   266628    31741      8 |        1213  -       20414 |  3.088 %  |
|         3 |      7486 |   12994   308304  1771789 |   242389    33634      7 |        1235  -       26142 |  3.088 %  |
|         0 |     17096 |   12994   308304  1771789 |   293209    45781      9 |        1236  -       28701 |  3.088 %  |
|         1 |     17096 |   12994   308304  1771789 |   293291    45700      9 |        1236  -       28607 |  3.088 %  |
|         3 |     11330 |   12993   308304  1771789 |   266628    44018      7 |        1235  -       32683 |  3.095 %  |
|         2 |     11330 |   12994   308304  1771789 |   266628    44488      7 |        1243  -       33154 |  3.088 %  |
|         0 |     25745 |   12993   308304  1771789 |   322530    62625     12 |        1236  -       36896 |  3.095 %  |
|         2 |     17096 |   12993   308304  1771789 |   293291    60502      8 |        1243  -       43402 |  3.095 %  |
|         3 |     17096 |   12993   308304  1771789 |   293291    61510      8 |        1235  -       44409 |  3.095 %  |
|         1 |     25745 |   12993   308304  1771789 |   322621    66814      9 |        1236  -       41072 |  3.095 %  |
|         0 |     38719 |   12993   308304  1771789 |   354783    92117     12 |        1236  -       53414 |  3.095 %  |
|         3 |     25745 |   12993   308304  1771789 |   322621    83690      8 |        1235  -       57940 |  3.095 %  |
|         2 |     25745 |   12993   308304  1771789 |   322621    86469      9 |        1243  -       60720 |  3.095 %  |
|         1 |     38719 |   12993   307921  1769803 |   354883    98881     10 |        1236  -       60172 |  3.095 %  |
|         3 |     38719 |   12993   307921  1769803 |   354883   113963     10 |        1235  -       75246 |  3.095 %  |
|         2 |     38719 |   12993   307921  1769803 |   354883   122008      9 |        1243  -       83292 |  3.095 %  |
|         1 |     58180 |   12993   307921  1769803 |   390371   137323     11 |        1236  -       79153 |  3.095 %  |
|         0 |     58180 |   12993   307921  1769803 |   390261   145904     12 |        1236  -       87743 |  3.095 %  |
|         3 |     58180 |   12993   307921  1769803 |   390371   149581     11 |        1235  -       91403 |  3.095 %  |
|         2 |     58180 |   12993   307921  1769803 |   390371   171756     11 |        1243  -      113579 |  3.095 %  |
|         0 |     87372 |   12993   307921  1769803 |   429287   201595     13 |        1236  -      114242 |  3.095 %  |
|         1 |     87372 |   12993   307921  1769803 |   429408   207053     13 |        1236  -      119691 |  3.095 %  |
|         3 |     87372 |   12993   307921  1769803 |   429408   207428     13 |        1235  -      120058 |  3.095 %  |
|         2 |     87372 |   12991   307887  1769661 |   429408   234468     13 |        1245  -      147100 |  3.110 %  |
|         0 |    131161 |   12992   307907  1769746 |   472216   283931     15 |        1249  -      152790 |  3.103 %  |
|         3 |    131161 |   12991   307887  1769661 |   472349   289617     15 |        1249  -      158459 |  3.110 %  |
|         2 |    131161 |   12989   307887  1769661 |   472349   308563     16 |        1246  -      177408 |  3.125 %  |
|         1 |    131161 |   12993   307921  1769803 |   472349   298939     15 |        1252  -      167788 |  3.095 %  |
|         2 |    196845 |   12987   307817  1769399 |   519584   422171     20 |        1251  -      225340 |  3.140 %  |
|         0 |    196845 |   12987   307817  1769399 |   519437   415311     15 |        1262  -      218494 |  3.140 %  |
|         1 |    196845 |   12987   307835  1769466 |   519584   434316     19 |        1262  -      237486 |  3.140 %  |
|         3 |    196845 |   12987   307817  1769399 |   519584   420680     15 |        1264  -      223845 |  3.140 %  |
|         2 |    295371 |   12987   307817  1769399 |   571542   106380     22 |        1263  -      291598 |  3.140 %  |
|         0 |    295371 |   12987   307817  1769399 |   571381   168057     21 |        1263  -      343837 |  3.140 %  |
|         1 |    295371 |   12986   307835  1769466 |   571542   205028     14 |        1262  -      366520 |  3.147 %  |
|         3 |    295371 |   12986   307817  1769399 |   571542   192001     15 |        1264  -      360615 |  3.147 %  |
|         2 |    443160 |   12986   307817  1769399 |   628697   392579     20 |        1263  -      430008 |  3.147 %  |
|         3 |    443160 |   12986   307812  1769386 |   628697   418977     19 |        1264  -      439802 |  3.147 %  |
|         0 |    443160 |   12986   307812  1769386 |   628519   455562     33 |        1263  -      483553 |  3.147 %  |
|         1 |    443160 |   12986   307812  1769386 |   628697   497792     22 |        1262  -      511497 |  3.147 %  |
|         2 |    664843 |   12986   307812  1769386 |   691566   133920     27 |        1263  -      540570 |  3.147 %  |
|         3 |    664843 |   12986   307812  1769386 |   691566   231608     22 |        1264  -      612945 |  3.147 %  |
|         1 |    664843 |   12986   307812  1769386 |   691566   359985     20 |        1262  -      735816 |  3.147 %  |
|         0 |    664843 |   12986   307812  1769386 |   691371   330019     23 |        1263  -      703972 |  3.147 %  |
|         2 |    997368 |   12986   307812  1769386 |   760723    54640     57 |        1263  -      793000 |  3.147 %  |
|         0 |    997368 |   12986   307812  1769386 |   760508   189170     26 |        1263  -      897255 |  3.147 %  |
|         1 |    997368 |   12986   307812  1769386 |   760723   275727     30 |        1262  -      983065 |  3.147 %  |
|         3 |    997368 |   12986   307812  1769386 |   760723   252847     41 |        1264  -      954807 |  3.147 %  |
|         2 |   1496156 |   12986   307812  1769386 |   836795    78652     30 |        1263  -     1049203 |  3.147 %  |
|         1 |   1496156 |   12986   307812  1769386 |   836795   355146     23 |        1262  -     1286258 |  3.147 %  |
|         0 |   1496156 |   12986   307812  1769386 |   836559   343220     20 |        1263  -     1269529 |  3.147 %  |
|         3 |   1496156 |   12986   307812  1769386 |   836795   413708     26 |        1264  -     1304262 |  3.147 %  |
|         0 |   2244338 |   12986   307812  1769386 |   920215   645099     39 |        1263  -     1605767 |  3.147 %  |
|         2 |   2244338 |   12986   307812  1769386 |   920475   650926     80 |        1263  -     1650931 |  3.147 %  |
|         1 |   2244338 |   12986   307812  1769386 |   920475   680163     55 |        1262  -     1634730 |  3.147 %  |
|         3 |   2244338 |   12986   307812  1769386 |   920475   106426     31 |        1264  -     1816201 |  3.147 %  |
